6208
6343
6391
6304
6359
6331
6337
6380
6366
6315
6192
6301
6344
6373
6134
6236
6369
6082
6349
6312
6287
6316
6161
6263
6361
6251
6280
6407
6403
6289
6382
6403
6412
6362
6320
6329
6350
6328
6368
6413
6319
6340
6286
6408
6356
6263
6354
6274
6321
6205
6271
6372
6258
6357
6442
6267
6426
6273
6274
6340
6347
6417
6265
6301
6369
6339
6431
6141
6243
6299
6371
6370
6290
6366
6355
6313
6391
6341
6350
6232
6261
6416
6407
6394
6442
6324
6442
6247
6300
6382
6388
6431
6325
6252
6379
6442
6280
6258
6418
6373
